8681 10564 10655
10369 10961 9273
9980 10729 10099
10482 10259 9346
10688 9049 8844
10310 11401 8462
8969 10112 10785
9889 10337 10402
10723 10349 8568
10680 10233 8866
8768 10589 10635
10174 10336 9902
10554 11040 8314
8885 11736 8200
9833 10813 10166
10291 10001 9692
8733 11488 9526
10338 11114 9152
10353 11224 8861
9821 11443 9471
9778 11620 9072
10532 10721 8955
10394 10638 9388
9198 10255 10745
9793 11730 8781
10697 10589 8530
9837 11180 9883
8625 11040 10419
9146 11098 10226
10752 10250 8267
9087 11538 9415
9142 10731 10509
